(declare-sort $$unsorted 0)
(declare-fun tptp.op ($$unsorted $$unsorted) $$unsorted)
(assert (forall ((X0 $$unsorted) (X1 $$unsorted) (X2 $$unsorted) (X3 $$unsorted)) (= X0 (tptp.op X1 (tptp.op X2 (tptp.op (tptp.op X0 X2) X3))))))
(assert (not (forall ((X0 $$unsorted) (X1 $$unsorted) (X2 $$unsorted) (X3 $$unsorted)) (= X0 (tptp.op X1 (tptp.op X0 (tptp.op (tptp.op X2 X1) X3)))))))
(set-info :filename Equation751_implies_Equation693)
(check-sat-assuming ( true ))
